# DGP instance in .dat format for dgp.mod
# this graph is a DGP encoding of a random instance

param : E : c I :=
  1 5  4.000 0
  4 6  4.000 0
  1 8  5.000 0
  1 4  5.000 0
  6 7  2.000 0
  1 7  5.000 0
  4 5  4.000 0
  5 6  1.000 0
  4 8  4.000 0
  1 3  1.000 0
  4 7  5.000 0
  3 5  1.000 0
;
